p cnf 94 337
9 10 11 12 13 14 15 16 0
28 29 30 31 32 33 34 0
45 46 47 48 49 50 51 52 53 0
-1 -9 0
-1 -17 0
-1 -28 0
-1 -35 0
-1 -45 0
-1 -54 0
-1 -64 0
-1 -75 0
-1 -84 0
-9 -17 0
-9 -28 0
-9 -35 0
-9 -45 0
-9 -54 0
-9 -64 0
-9 -75 0
-9 -84 0
-17 -28 0
-17 -35 0
-17 -45 0
-17 -54 0
-17 -64 0
-17 -75 0
-17 -84 0
-28 -35 0
-28 -45 0
-28 -54 0
-28 -64 0
-28 -75 0
-28 -84 0
-35 -45 0
-35 -54 0
-35 -64 0
-35 -75 0
-35 -84 0
-45 -54 0
-45 -64 0
-45 -75 0
-45 -84 0
-54 -64 0
-54 -75 0
-54 -84 0
-64 -75 0
-64 -84 0
-75 -84 0
-10 -18 0
-10 -29 0
-10 -36 0
-10 -46 0
-10 -55 0
-10 -65 0
-10 -76 0
-10 -85 0
-18 -29 0
-18 -36 0
-18 -46 0
-18 -55 0
-18 -65 0
-18 -76 0
-18 -85 0
-29 -36 0
-29 -46 0
-29 -55 0
-29 -65 0
-29 -76 0
-29 -85 0
-36 -46 0
-36 -55 0
-36 -65 0
-36 -76 0
-36 -85 0
-46 -55 0
-46 -65 0
-46 -76 0
-46 -85 0
-55 -65 0
-55 -76 0
-55 -85 0
-65 -76 0
-65 -85 0
-76 -85 0
-2 -11 0
-2 -19 0
-2 -37 0
-2 -47 0
-2 -66 0
-2 -77 0
-2 -86 0
-11 -19 0
-11 -37 0
-11 -47 0
-11 -66 0
-11 -77 0
-11 -86 0
-19 -37 0
-19 -47 0
-19 -66 0
-19 -77 0
-19 -86 0
-37 -47 0
-37 -66 0
-37 -77 0
-37 -86 0
-47 -66 0
-47 -77 0
-47 -86 0
-66 -77 0
-66 -86 0
-77 -86 0
-12 -20 0
-12 -30 0
-12 -48 0
-12 -56 0
-12 -67 0
-12 -78 0
-12 -87 0
-20 -30 0
-20 -48 0
-20 -56 0
-20 -67 0
-20 -78 0
-20 -87 0
-30 -48 0
-30 -56 0
-30 -67 0
-30 -78 0
-30 -87 0
-48 -56 0
-48 -67 0
-48 -78 0
-48 -87 0
-56 -67 0
-56 -78 0
-56 -87 0
-67 -78 0
-67 -87 0
-78 -87 0
-3 -13 0
-3 -21 0
-3 -38 0
-3 -57 0
-3 -68 0
-3 -79 0
-3 -88 0
-13 -21 0
-13 -38 0
-13 -57 0
-13 -68 0
-13 -79 0
-13 -88 0
-21 -38 0
-21 -57 0
-21 -68 0
-21 -79 0
-21 -88 0
-38 -57 0
-38 -68 0
-38 -79 0
-38 -88 0
-57 -68 0
-57 -79 0
-57 -88 0
-68 -79 0
-68 -88 0
-79 -88 0
-4 -22 0
-4 -31 0
-4 -39 0
-4 -49 0
-4 -58 0
-4 -69 0
-4 -80 0
-22 -31 0
-22 -39 0
-22 -49 0
-22 -58 0
-22 -69 0
-22 -80 0
-31 -39 0
-31 -49 0
-31 -58 0
-31 -69 0
-31 -80 0
-39 -49 0
-39 -58 0
-39 -69 0
-39 -80 0
-49 -58 0
-49 -69 0
-49 -80 0
-58 -69 0
-58 -80 0
-69 -80 0
-23 -40 0
-23 -50 0
-23 -59 0
-23 -70 0
-23 -89 0
-40 -50 0
-40 -59 0
-40 -70 0
-40 -89 0
-50 -59 0
-50 -70 0
-50 -89 0
-59 -70 0
-59 -89 0
-70 -89 0
-5 -24 0
-5 -32 0
-5 -41 0
-5 -51 0
-5 -60 0
-5 -71 0
-5 -81 0
-5 -90 0
-24 -32 0
-24 -41 0
-24 -51 0
-24 -60 0
-24 -71 0
-24 -81 0
-24 -90 0
-32 -41 0
-32 -51 0
-32 -60 0
-32 -71 0
-32 -81 0
-32 -90 0
-41 -51 0
-41 -60 0
-41 -71 0
-41 -81 0
-41 -90 0
-51 -60 0
-51 -71 0
-51 -81 0
-51 -90 0
-60 -71 0
-60 -81 0
-60 -90 0
-71 -81 0
-71 -90 0
-81 -90 0
-14 -25 0
-14 -33 0
-14 -42 0
-14 -52 0
-14 -61 0
-14 -72 0
-14 -91 0
-25 -33 0
-25 -42 0
-25 -52 0
-25 -61 0
-25 -72 0
-25 -91 0
-33 -42 0
-33 -52 0
-33 -61 0
-33 -72 0
-33 -91 0
-42 -52 0
-42 -61 0
-42 -72 0
-42 -91 0
-52 -61 0
-52 -72 0
-52 -91 0
-61 -72 0
-61 -91 0
-72 -91 0
-6 -62 0
-6 -73 0
-6 -92 0
-62 -73 0
-62 -92 0
-73 -92 0
-7 -15 0
-7 -26 0
-7 -34 0
-7 -43 0
-7 -63 0
-7 -82 0
-7 -93 0
-15 -26 0
-15 -34 0
-15 -43 0
-15 -63 0
-15 -82 0
-15 -93 0
-26 -34 0
-26 -43 0
-26 -63 0
-26 -82 0
-26 -93 0
-34 -43 0
-34 -63 0
-34 -82 0
-34 -93 0
-43 -63 0
-43 -82 0
-43 -93 0
-63 -82 0
-63 -93 0
-82 -93 0
-8 -16 0
-8 -27 0
-8 -44 0
-8 -53 0
-8 -74 0
-8 -83 0
-8 -94 0
-16 -27 0
-16 -44 0
-16 -53 0
-16 -74 0
-16 -83 0
-16 -94 0
-27 -44 0
-27 -53 0
-27 -74 0
-27 -83 0
-27 -94 0
-44 -53 0
-44 -74 0
-44 -83 0
-44 -94 0
-53 -74 0
-53 -83 0
-53 -94 0
-74 -83 0
-74 -94 0
-83 -94 0
